p cnf 20 8
e 1 0
a 2 0
e 3 4 5 0
a 6 7 8 0
e 9 0
a 10 11 0
e 12 13 0
a 14 15 0
e 16 0
a 17 0
e 18 0
a 19 0
e 20 0
3 4 -20 -18 -15 0
-6 -19 10 3 0
-13 6 -10 -1 -9 0
17 -12 -19 0
13 7 18 0
-8 -3 17 0
-10 -19 -20 18 5 0
19 -18 -16 -11 -14 0
